# Objective value = 2.0008570946985558e+03
x[0] 1
x[1] 1
x[2] 1
x[3] 0
x[4] 1
x[5] 1
x[6] 1
x[7] 0
x[8] 1
x[9] 0
x[10] 0
x[11] 0
x[12] 1
x[13] 0
x[14] 1
x[15] 1
x[16] 0
x[17] 1
x[18] 0
x[19] 0
x[20] 1
x[21] 0
x[22] 0
x[23] 0
x[24] 0
x[25] 1
x[26] 1
x[27] 1
x[28] 1
x[29] 0
x[30] 1
x[31] 1
x[32] 0
x[33] 0
x[34] 1
x[35] 1
x[36] 1
x[37] 0
x[38] 1
x[39] 0
x[40] 1
x[41] 1
x[42] 0
x[43] 1
x[44] 1
x[45] 1
x[46] 0
x[47] 1
x[48] 0
x[49] 1
x[50] 0
x[51] 1
x[52] 1
x[53] 0
x[54] 1
x[55] 0
x[56] 1
x[57] 1
x[58] 0
x[59] 0
x[60] 1
x[61] 1
x[62] 1
x[63] 1
x[64] 1
x[65] 0
x[66] 1
x[67] 1
x[68] 1
x[69] 0
x[70] 0
x[71] 0
x[72] 1
x[73] 1
x[74] 1
x[75] 1
x[76] 1
x[77] 1
x[78] 1
x[79] 1
x[80] 1
x[81] 1
x[82] 0
x[83] 1
x[84] 1
x[85] 1
x[86] 1
x[87] 1
x[88] 1
x[89] 0
x[90] 0
x[91] 0
x[92] 1
x[93] 0
x[94] 0
x[95] 1
x[96] 1
x[97] 1
x[98] 0
x[99] 1
x[100] 0
x[101] 1
x[102] 0
x[103] 1
x[104] 0
x[105] 1
x[106] 1
x[107] 0
x[108] 0
x[109] 0
x[110] 1
x[111] 1
x[112] 0
x[113] 0
x[114] 0
x[115] 1
x[116] 0
x[117] 0
x[118] 1
x[119] 1
x[120] 0
x[121] 1
x[122] 0
x[123] 1
x[124] 0
x[125] 0
x[126] 0
x[127] 1
x[128] 1
x[129] 1
x[130] 0
x[131] 0
x[132] 0
x[133] 1
x[134] 1
x[135] 1
x[136] 1
x[137] 1
x[138] 1
x[139] 1
x[140] 1
x[141] 0
x[142] 0
x[143] 0
x[144] 1
x[145] 1
x[146] 0
x[147] 0
x[148] 0
x[149] 0
x[150] 0
x[151] 1
x[152] 0
x[153] 1
x[154] 1
x[155] 1
x[156] 0
x[157] 1
x[158] 1
x[159] 1
x[160] 0
x[161] 1
x[162] 1
x[163] 0
x[164] 0
x[165] 0
x[166] 0
x[167] 1
x[168] 1
x[169] 1
x[170] 1
x[171] 1
x[172] 1
x[173] 0
x[174] 1
x[175] 1
x[176] 1
x[177] 1
x[178] 1
x[179] 1
x[180] 1
x[181] 1
x[182] 1
x[183] 0
x[184] 0
x[185] 1
x[186] 0
x[187] 1
x[188] 0
x[189] 1
x[190] 0
x[191] 1
x[192] 0
x[193] 0
x[194] 1
x[195] 0
x[196] 0
x[197] 1
x[198] 0
x[199] 0
x[200] 1
x[201] 0
x[202] 0
x[203] 1
x[204] 0
x[205] 0
x[206] 1
x[207] 0
x[208] 1
x[209] 1
x[210] 1
x[211] 1
x[212] 0
x[213] 0
x[214] 1
x[215] 1
x[216] 0
x[217] 1
x[218] 1
x[219] 0
x[220] 0
x[221] 1
x[222] 0
x[223] 1
x[224] 1
x[225] 0
x[226] 1
x[227] 0
x[228] 1
x[229] 1
x[230] 0
x[231] 1
x[232] 1
x[233] 0
x[234] 1
x[235] 0
x[236] 0
x[237] 0
x[238] 0
x[239] 0
x[240] 0
x[241] 0
x[242] 1
x[243] 0
x[244] 0
x[245] 0
x[246] 1
x[247] 1
x[248] 1
x[249] 1
x[250] 1
x[251] 1
x[252] 1
x[253] 1
x[254] 0
x[255] 0
x[256] 1
x[257] 1
x[258] 0
x[259] 1
x[260] 1
x[261] 1
x[262] 0
x[263] 0
x[264] 0
x[265] 0
x[266] 1
x[267] 1
x[268] 1
x[269] 1
x[270] 1
x[271] 0
x[272] 1
x[273] 1
x[274] 1
x[275] 0
x[276] 1
x[277] 0
x[278] 1
x[279] 0
x[280] 1
x[281] 0
x[282] 0
x[283] 0
x[284] 1
x[285] 1
x[286] 0
x[287] 0
x[288] 1
x[289] 1
x[290] 0
x[291] 0
x[292] 1
x[293] 1
x[294] 0
x[295] 1
x[296] 0
x[297] 0
x[298] 1
x[299] 1
x[300] 0
x[301] 0
x[302] 0
x[303] 1
x[304] 0
x[305] 0
x[306] 1
x[307] 0
x[308] 1
x[309] 1
x[310] 1
x[311] 1
x[312] 0
x[313] 1
x[314] 0
x[315] 0
x[316] 0
x[317] 0
x[318] 0
x[319] 0
x[320] 0
x[321] 1
x[322] 0
x[323] 0
x[324] 0
x[325] 1
x[326] 1
x[327] 0
x[328] 1
x[329] 0
x[330] 0
x[331] 1
x[332] 0
x[333] 0
x[334] 1
x[335] 1
x[336] 1
x[337] 1
x[338] 1
x[339] 1
x[340] 0
x[341] 1
x[342] 0
x[343] 1
x[344] 0
x[345] 1
x[346] 1
x[347] 1
x[348] 0
x[349] 0
x[350] 0
x[351] 1
x[352] 1
x[353] 1
x[354] 0
x[355] 1
x[356] 1
x[357] 0
x[358] 0
x[359] 1
x[360] 0
x[361] 1
x[362] 1
x[363] 1
x[364] 0
x[365] 1
x[366] 1
x[367] 0
x[368] 1
x[369] 1
x[370] 0
x[371] 0
x[372] 1
x[373] 1
x[374] 0
x[375] 0
x[376] 0
x[377] 1
x[378] 0
x[379] 1
x[380] 1
x[381] 0
x[382] 1
x[383] 1
x[384] 0
x[385] 0
x[386] 1
x[387] 1
x[388] 1
x[389] 1
x[390] 0
x[391] 0
x[392] 0
x[393] 0
x[394] 0
x[395] 1
x[396] 1
x[397] 1
x[398] 0
x[399] 1
x[400] 0
x[401] 0
x[402] 0
x[403] 0
x[404] 0
x[405] 0
x[406] 1
x[407] 1
x[408] 1
x[409] 1
x[410] 0
x[411] 1
x[412] 0
x[413] 0
x[414] 1
x[415] 0
x[416] 0
x[417] 1
x[418] 1
x[419] 1
x[420] 0
x[421] 0
x[422] 1
x[423] 0
x[424] 0
x[425] 1
x[426] 1
x[427] 0
x[428] 0
x[429] 1
x[430] 0
x[431] 0
x[432] 0
x[433] 0
x[434] 0
x[435] 0
x[436] 1
x[437] 1
x[438] 1
x[439] 0
x[440] 0
x[441] 1
x[442] 1
x[443] 1
x[444] 0
x[445] 1
x[446] 0
x[447] 1
x[448] 0
x[449] 0
x[450] 1
x[451] 1
x[452] 1
x[453] 0
x[454] 0
x[455] 1
x[456] 1
x[457] 1
x[458] 0
x[459] 1
x[460] 0
x[461] 0
x[462] 1
x[463] 1
x[464] 1
x[465] 1
x[466] 0
x[467] 0
x[468] 0
x[469] 1
x[470] 1
x[471] 0
x[472] 1
x[473] 0
x[474] 0
x[475] 0
x[476] 0
x[477] 1
x[478] 1
x[479] 0
x[480] 1
x[481] 1
x[482] 1
x[483] 1
x[484] 0
x[485] 0
x[486] 1
x[487] 1
x[488] 1
x[489] 0
x[490] 1
x[491] 1
x[492] 0
x[493] 0
x[494] 0
x[495] 0
x[496] 0
x[497] 1
x[498] 0
x[499] 1
x[500] 1
x[501] 0
x[502] 0
x[503] 1
x[504] 0
x[505] 1
x[506] 0
x[507] 0
x[508] 1
x[509] 0
x[510] 1
x[511] 1
x[512] 1
x[513] 1
x[514] 1
x[515] 1
x[516] 0
x[517] 0
x[518] 0
x[519] 0
x[520] 0
x[521] 0
x[522] 0
x[523] 1
x[524] 0
x[525] 1
x[526] 0
x[527] 1
x[528] 0
x[529] 0
x[530] 1
x[531] 1
x[532] 0
x[533] 1
x[534] 1
x[535] 0
x[536] 0
x[537] 1
x[538] 0
x[539] 0
x[540] 1
x[541] 0
x[542] 0
x[543] 0
x[544] 1
x[545] 0
x[546] 0
x[547] 1
x[548] 0
x[549] 0
x[550] 1
x[551] 0
x[552] 1
x[553] 1
x[554] 0
x[555] 0
x[556] 1
x[557] 1
x[558] 1
x[559] 1
x[560] 1
x[561] 1
x[562] 1
x[563] 0
x[564] 1
x[565] 1
x[566] 1
x[567] 1
x[568] 1
x[569] 1
x[570] 0
x[571] 1
x[572] 1
x[573] 1
x[574] 1
x[575] 1
x[576] 1
x[577] 1
x[578] 0
x[579] 1
x[580] 1
x[581] 1
x[582] 1
x[583] 1
x[584] 1
x[585] 1
x[586] 0
x[587] 1
x[588] 0
x[589] 1
x[590] 1
x[591] 1
x[592] 0
x[593] 0
x[594] 1
x[595] 1
x[596] 1
x[597] 0
x[598] 1
x[599] 0
x[600] 1
x[601] 1
x[602] 0
x[603] 1
x[604] 1
x[605] 1
x[606] 0
x[607] 0
x[608] 1
x[609] 1
x[610] 0
x[611] 1
x[612] 0
x[613] 1
x[614] 0
x[615] 0
x[616] 0
x[617] 0
x[618] 0
x[619] 1
x[620] 0
x[621] 1
x[622] 1
x[623] 0
x[624] 1
x[625] 1
x[626] 0
x[627] 0
x[628] 1
x[629] 1
x[630] 1
x[631] 1
x[632] 0
x[633] 0
x[634] 0
x[635] 1
x[636] 1
x[637] 1
x[638] 0
x[639] 0
x[640] 1
x[641] 1
x[642] 1
x[643] 1
x[644] 1
x[645] 1
x[646] 0
x[647] 0
x[648] 0
x[649] 0
x[650] 1
x[651] 1
x[652] 0
x[653] 0
x[654] 0
x[655] 0
x[656] 0
x[657] 0
x[658] 1
x[659] 0
x[660] 0
x[661] 0
x[662] 1
x[663] 1
x[664] 0
x[665] 1
x[666] 1
x[667] 1
x[668] 1
x[669] 1
x[670] 0
x[671] 1
x[672] 0
x[673] 0
x[674] 1
x[675] 1
x[676] 1
x[677] 0
x[678] 0
x[679] 0
x[680] 0
x[681] 0
x[682] 1
x[683] 1
x[684] 1
x[685] 1
x[686] 0
x[687] 0
x[688] 1
x[689] 1
x[690] 1
x[691] 0
x[692] 1
x[693] 0
x[694] 1
x[695] 0
x[696] 0
x[697] 0
x[698] 1
x[699] 1
x[700] 1
x[701] 0
x[702] 0
x[703] 1
x[704] 1
x[705] 1
x[706] 0
x[707] 0
x[708] 0
x[709] 1
x[710] 1
x[711] 1
x[712] 1
x[713] 1
x[714] 0
x[715] 0
x[716] 1
x[717] 0
x[718] 0
x[719] 0
x[720] 1
x[721] 0
x[722] 0
x[723] 1
x[724] 1
x[725] 1
x[726] 1
x[727] 1
x[728] 0
x[729] 1
x[730] 1
x[731] 1
x[732] 1
x[733] 1
x[734] 0
x[735] 0
x[736] 1
x[737] 1
x[738] 0
x[739] 0
x[740] 1
x[741] 1
x[742] 1
x[743] 0
x[744] 0
x[745] 0
x[746] 1
x[747] 1
x[748] 0
x[749] 1
x[750] 0
x[751] 1
x[752] 1
x[753] 1
x[754] 0
x[755] 1
x[756] 1
x[757] 1
x[758] 0
x[759] 0
x[760] 0
x[761] 1
x[762] 0
x[763] 1
x[764] 0
x[765] 1
x[766] 0
x[767] 1
x[768] 0
x[769] 0
x[770] 1
x[771] 0
x[772] 1
x[773] 0
x[774] 1
x[775] 1
x[776] 0
x[777] 1
x[778] 0
x[779] 0
x[780] 1
x[781] 1
x[782] 1
x[783] 1
x[784] 1
x[785] 1
x[786] 1
x[787] 1
x[788] 1
x[789] 0
x[790] 0
x[791] 0
x[792] 0
x[793] 0
x[794] 1
x[795] 1
x[796] 0
x[797] 1
x[798] 1
x[799] 0
x[800] 0
x[801] 1
x[802] 0
x[803] 1
x[804] 0
x[805] 1
x[806] 0
x[807] 1
x[808] 1
x[809] 0
x[810] 0
x[811] 0
x[812] 1
x[813] 1
x[814] 0
x[815] 1
x[816] 1
x[817] 0
x[818] 0
x[819] 1
x[820] 1
x[821] 1
x[822] 1
x[823] 1
x[824] 0
x[825] 1
x[826] 0
x[827] 1
x[828] 0
x[829] 1
x[830] 1
x[831] 0
x[832] 0
x[833] 0
x[834] 0
x[835] 1
x[836] 0
x[837] 1
x[838] 0
x[839] 1
x[840] 1
x[841] 1
x[842] 0
x[843] 1
x[844] 1
x[845] 1
x[846] 1
x[847] 0
x[848] 1
x[849] 1
x[850] 1
x[851] 1
x[852] 0
x[853] 1
x[854] 0
x[855] 1
x[856] 0
x[857] 1
x[858] 1
x[859] 1
x[860] 1
x[861] 1
x[862] 1
x[863] 0
x[864] 1
x[865] 0
x[866] 0
x[867] 1
x[868] 0
x[869] 0
x[870] 1
x[871] 0
x[872] 1
x[873] 0
x[874] 1
x[875] 1
x[876] 1
x[877] 0
x[878] 1
x[879] 0
x[880] 0
x[881] 1
x[882] 0
x[883] 0
x[884] 1
x[885] 0
x[886] 1
x[887] 1
x[888] 0
x[889] 1
x[890] 0
x[891] 1
x[892] 1
x[893] 1
x[894] 1
x[895] 1
x[896] 1
x[897] 1
x[898] 1
x[899] 0
x[900] 1
x[901] 0
x[902] 0
x[903] 1
x[904] 0
x[905] 1
x[906] 1
x[907] 1
x[908] 0
x[909] 0
x[910] 0
x[911] 1
x[912] 1
x[913] 0
x[914] 1
x[915] 0
x[916] 1
x[917] 1
x[918] 1
x[919] 0
x[920] 1
x[921] 0
x[922] 0
x[923] 1
x[924] 0
x[925] 1
x[926] 1
x[927] 1
x[928] 1
x[929] 1
x[930] 1
x[931] 1
x[932] 1
x[933] 1
x[934] 0
x[935] 1
x[936] 0
x[937] 1
x[938] 0
x[939] 0
x[940] 1
x[941] 0
x[942] 1
x[943] 0
x[944] 1
x[945] 1
x[946] 0
x[947] 0
x[948] 1
x[949] 1
x[950] 1
x[951] 0
x[952] 1
x[953] 1
x[954] 1
x[955] 1
x[956] 0
x[957] 0
x[958] 1
x[959] 1
x[960] 0
x[961] 1
x[962] 1
x[963] 0
x[964] 1
x[965] 1
x[966] 1
x[967] 1
x[968] 1
x[969] 1
x[970] 1
x[971] 1
x[972] 0
x[973] 1
x[974] 1
x[975] 1
x[976] 1
x[977] 1
x[978] 0
x[979] 0
x[980] 1
x[981] 0
x[982] 0
x[983] 1
x[984] 1
x[985] 0
x[986] 0
x[987] 1
x[988] 1
x[989] 0
x[990] 0
x[991] 1
x[992] 1
x[993] 1
x[994] 0
x[995] 1
x[996] 0
x[997] 0
x[998] 0
x[999] 1
